rcpsp/heur_output_log_0/heurj120.txt
encoding rcpsp/j120.sm/j12057_3.sm nv: 5170624 nc: 10589718 enctime: 102.51
encoding rcpsp/j120.sm/j12057_3.sm nv: 1531760 nc: 3133261 enctime: 23.47
c File: j12057_3.smnaiveor1000.wcnf
c timeout
c final solution cost: 247
c CPU time: 72.860120
s UNKNOWN

c File: j12057_3.smor1000.wcnf
c timeout
c CPU time: 62.384777
s UNKNOWN


rcpsp/heur_output_log_0/heurj120.txt
encoding rcpsp/j120.sm/j12057_4.sm nv: 4755366 nc: 9766292 enctime: 97.27
encoding rcpsp/j120.sm/j12057_4.sm nv: 1598846 nc: 3279832 enctime: 24.45
c File: j12057_4.smnaiveor1000.wcnf
c timeout
c final solution cost: 277
c CPU time: 72.408509
s UNKNOWN

c File: j12057_4.smor1000.wcnf
c timeout
c CPU time: 62.529615
s UNKNOWN


rcpsp/heur_output_log_0/heurj120.txt
encoding rcpsp/j120.sm/j12057_5.sm nv: 4881106 nc: 9985806 enctime: 96.96
encoding rcpsp/j120.sm/j12057_5.sm nv: 1500190 nc: 3065508 enctime: 22.64
c File: j12057_5.smnaiveor1000.wcnf
c timeout
c final solution cost: 210
c CPU time: 71.965635
s UNKNOWN

c File: j12057_5.smor1000.wcnf
c timeout
c CPU time: 62.314218
s UNKNOWN


rcpsp/heur_output_log_0/heurj120.txt
encoding rcpsp/j120.sm/j12057_6.sm nv: 4167891 nc: 8536558 enctime: 82.14
encoding rcpsp/j120.sm/j12057_6.sm nv: 1406745 nc: 2877960 enctime: 20.64
c File: j12057_6.smnaiveor1000.wcnf
c timeout
c final solution cost: 229
c CPU time: 70.378212
s UNKNOWN

c File: j12057_6.smor1000.wcnf
c timeout
c CPU time: 62.285717
s UNKNOWN


rcpsp/heur_output_log_0/heurj120.txt
encoding rcpsp/j120.sm/j12057_7.sm nv: 5048744 nc: 10321365 enctime: 97.92
encoding rcpsp/j120.sm/j12057_7.sm nv: 1375556 nc: 2808291 enctime: 20.56
c File: j12057_7.smnaiveor1000.wcnf
c timeout
c final solution cost: 240
c CPU time: 72.671731
s UNKNOWN

c File: j12057_7.smor1000.wcnf
c timeout
c CPU time: 62.045207
s UNKNOWN


rcpsp/heur_output_log_0/heurj120.txt
encoding rcpsp/j120.sm/j12057_8.sm nv: 4943360 nc: 10081992 enctime: 93.75
encoding rcpsp/j120.sm/j12057_8.sm nv: 1382596 nc: 2816171 enctime: 21.04
c File: j12057_8.smnaiveor1000.wcnf
c timeout
c final solution cost: 497
c CPU time: 71.563034
s UNKNOWN

c File: j12057_8.smor1000.wcnf
c timeout
c CPU time: 62.058687
s UNKNOWN


rcpsp/heur_output_log_0/heurj120.txt
encoding rcpsp/j120.sm/j12057_9.sm nv: 4837968 nc: 9881528 enctime: 93.91
encoding rcpsp/j120.sm/j12057_9.sm nv: 1418540 nc: 2893822 enctime: 21.58
c File: j12057_9.smnaiveor1000.wcnf
c timeout
c final solution cost: 249
c CPU time: 71.722255
s UNKNOWN

c File: j12057_9.smor1000.wcnf
c timeout
c CPU time: 62.175294
s UNKNOWN


rcpsp/heur_output_log_0/heurj120.txt
encoding rcpsp/j120.sm/j1205_7.sm nv: 1088362 nc: 2365812 enctime: 29.99
encoding rcpsp/j120.sm/j1205_7.sm nv: 137870 nc: 295474 enctime: 2.27
c File: j1205_7.smnaiveor1000.wcnf
c optimal
c final solution cost: 84
c CPU time: 7.040682
s OPTIMUM FOUND

c File: j1205_7.smor1000.wcnf
c optimal
c final solution cost: 84
c CPU time: 0.365852
s OPTIMUM FOUND


rcpsp/heur_output_log_0/heurj120.txt
encoding rcpsp/j120.sm/j12058_10.sm nv: 5573358 nc: 11319506 enctime: 103.42
encoding rcpsp/j120.sm/j12058_10.sm nv: 1324008 nc: 2685431 enctime: 17.91
c File: j12058_10.smnaiveor1000.wcnf
c timeout
c final solution cost: 324
c CPU time: 72.619564
s UNKNOWN

c File: j12058_10.smor1000.wcnf
c timeout
c CPU time: 61.881944
s UNKNOWN


rcpsp/heur_output_log_0/heurj120.txt
encoding rcpsp/j120.sm/j12058_1.sm nv: 5662594 nc: 11514355 enctime: 103.27
encoding rcpsp/j120.sm/j12058_1.sm nv: 1386938 nc: 2816391 enctime: 18.23
c File: j12058_1.smnaiveor1000.wcnf
c timeout
c final solution cost: 161
c CPU time: 72.595229
s UNKNOWN

c File: j12058_1.smor1000.wcnf
c timeout
c CPU time: 61.991130
s UNKNOWN


rcpsp/heur_output_log_0/heurj120.txt
encoding rcpsp/j120.sm/j12058_2.sm nv: 7209360 nc: 14629422 enctime: 128.52
encoding rcpsp/j120.sm/j12058_2.sm nv: 1463076 nc: 2964498 enctime: 22.34
c File: j12058_2.smnaiveor1000.wcnf
c timeout
c final solution cost: 143
c CPU time: 74.934859
s UNKNOWN

c File: j12058_2.smor1000.wcnf
c timeout
c CPU time: 61.983174
s UNKNOWN


rcpsp/heur_output_log_0/heurj120.txt
encoding rcpsp/j120.sm/j12058_3.sm nv: 6788664 nc: 13744249 enctime: 116.73
encoding rcpsp/j120.sm/j12058_3.sm nv: 1408968 nc: 2848777 enctime: 18.51
c File: j12058_3.smnaiveor1000.wcnf
c timeout
c final solution cost: 351
c CPU time: 73.690186
s UNKNOWN

c File: j12058_3.smor1000.wcnf
c timeout
c CPU time: 61.942676
s UNKNOWN


rcpsp/heur_output_log_0/heurj120.txt
encoding rcpsp/j120.sm/j12058_4.sm nv: 6286245 nc: 12803190 enctime: 114.30
encoding rcpsp/j120.sm/j12058_4.sm nv: 1477497 nc: 3004914 enctime: 19.10
c File: j12058_4.smnaiveor1000.wcnf
c timeout
c final solution cost: 218
c CPU time: 74.008776
s UNKNOWN

c File: j12058_4.smor1000.wcnf
c timeout
c CPU time: 62.052450
s UNKNOWN


rcpsp/heur_output_log_0/heurj120.txt
encoding rcpsp/j120.sm/j12058_5.sm nv: 8504925 nc: 17249116 enctime: 146.53
encoding rcpsp/j120.sm/j12058_5.sm nv: 1558245 nc: 3155444 enctime: 21.83
c File: j12058_5.smnaiveor1000.wcnf
c timeout
c final solution cost: 132
c CPU time: 77.654210
s UNKNOWN

c File: j12058_5.smor1000.wcnf
c timeout
c CPU time: 62.113169
s UNKNOWN


rcpsp/heur_output_log_0/heurj120.txt
encoding rcpsp/j120.sm/j12058_6.sm nv: 6081808 nc: 12345856 enctime: 112.91
encoding rcpsp/j120.sm/j12058_6.sm nv: 1527568 nc: 3097216 enctime: 20.52
c File: j12058_6.smnaiveor1000.wcnf
c timeout
c final solution cost: 228
c CPU time: 73.500952
s UNKNOWN

c File: j12058_6.smor1000.wcnf
c timeout
c final solution cost: 158
c CPU time: 62.644515
s UNKNOWN


rcpsp/heur_output_log_0/heurj120.txt
encoding rcpsp/j120.sm/j12058_7.sm nv: 7668558 nc: 15609854 enctime: 145.53
encoding rcpsp/j120.sm/j12058_7.sm nv: 1693733 nc: 3442854 enctime: 23.30
c File: j12058_7.smnaiveor1000.wcnf
c timeout
c final solution cost: 195
c CPU time: 76.820633
s UNKNOWN

c File: j12058_7.smor1000.wcnf
c timeout
c CPU time: 62.332667
s UNKNOWN


rcpsp/heur_output_log_0/heurj120.txt
encoding rcpsp/j120.sm/j12058_8.sm nv: 6781110 nc: 13781604 enctime: 125.12
encoding rcpsp/j120.sm/j12058_8.sm nv: 1423440 nc: 2888488 enctime: 19.09
c File: j12058_8.smnaiveor1000.wcnf
c timeout
c final solution cost: 166
c CPU time: 74.670645
s UNKNOWN

c File: j12058_8.smor1000.wcnf
c timeout
c CPU time: 62.007686
s UNKNOWN


rcpsp/heur_output_log_0/heurj120.txt
encoding rcpsp/j120.sm/j12058_9.sm nv: 6677930 nc: 13555365 enctime: 122.32
encoding rcpsp/j120.sm/j12058_9.sm nv: 1446048 nc: 2931133 enctime: 19.40
c File: j12058_9.smnaiveor1000.wcnf
c timeout
c final solution cost: 206
c CPU time: 74.379031
s UNKNOWN

c File: j12058_9.smor1000.wcnf
c timeout
c CPU time: 61.985327
s UNKNOWN


rcpsp/heur_output_log_0/heurj120.txt
encoding rcpsp/j120.sm/j1205_8.sm nv: 1011172 nc: 2206935 enctime: 28.81
encoding rcpsp/j120.sm/j1205_8.sm nv: 122796 nc: 263759 enctime: 2.06
c File: j1205_8.smnaiveor1000.wcnf
c optimal
c final solution cost: 78
c CPU time: 6.871666
s OPTIMUM FOUND

c File: j1205_8.smor1000.wcnf
c optimal
c final solution cost: 78
c CPU time: 0.396092
s OPTIMUM FOUND


rcpsp/heur_output_log_0/heurj120.txt
encoding rcpsp/j120.sm/j12059_10.sm nv: 5526962 nc: 11204711 enctime: 97.61
encoding rcpsp/j120.sm/j12059_10.sm nv: 1340426 nc: 2713991 enctime: 19.55
c File: j12059_10.smnaiveor1000.wcnf
c timeout
c final solution cost: 183
c CPU time: 73.557289
s UNKNOWN

c File: j12059_10.smor1000.wcnf
c timeout
c CPU time: 61.931710
s UNKNOWN


rcpsp/heur_output_log_0/heurj120.txt
encoding rcpsp/j120.sm/j12059_1.sm nv: 9186912 nc: 18549656 enctime: 158.44
encoding rcpsp/j120.sm/j12059_1.sm nv: 1654191 nc: 3335444 enctime: 22.99
c File: j12059_1.smnaiveor1000.wcnf
c timeout
c final solution cost: 147
c CPU time: 78.153556
s UNKNOWN

c File: j12059_1.smor1000.wcnf
c timeout
c CPU time: 62.210155
s UNKNOWN


rcpsp/heur_output_log_0/heurj120.txt
encoding rcpsp/j120.sm/j12059_2.sm nv: 8010728 nc: 16176567 enctime: 137.98
encoding rcpsp/j120.sm/j12059_2.sm nv: 1443940 nc: 2911718 enctime: 19.81
c File: j12059_2.smnaiveor1000.wcnf
c timeout
c final solution cost: 124
c CPU time: 75.645857
s UNKNOWN

c File: j12059_2.smor1000.wcnf
c timeout
c CPU time: 61.961762
s UNKNOWN


rcpsp/heur_output_log_0/heurj120.txt
encoding rcpsp/j120.sm/j12059_3.sm nv: 8069206 nc: 16277933 enctime: 137.11
encoding rcpsp/j120.sm/j12059_3.sm nv: 1504868 nc: 3031865 enctime: 24.10
c File: j12059_3.smnaiveor1000.wcnf
c timeout
c final solution cost: 121
c CPU time: 75.483748
s UNKNOWN

c File: j12059_3.smor1000.wcnf
c timeout
c final solution cost: 112
c CPU time: 62.429602
s UNKNOWN


rcpsp/heur_output_log_0/heurj120.txt
encoding rcpsp/j120.sm/j12059_4.sm nv: 6889008 nc: 13914575 enctime: 118.94
encoding rcpsp/j120.sm/j12059_4.sm nv: 1352792 nc: 2728672 enctime: 21.45
c File: j12059_4.smnaiveor1000.wcnf
c timeout
c final solution cost: 122
c CPU time: 73.622729
s UNKNOWN

c File: j12059_4.smor1000.wcnf
c timeout
c final solution cost: 117
c CPU time: 62.252522
s UNKNOWN


rcpsp/heur_output_log_0/heurj120.txt
encoding rcpsp/j120.sm/j12059_5.sm nv: 8335230 nc: 16837414 enctime: 143.33
encoding rcpsp/j120.sm/j12059_5.sm nv: 1427440 nc: 2879288 enctime: 24.39
c File: j12059_5.smnaiveor1000.wcnf
c timeout
c final solution cost: 119
c CPU time: 77.066026
s UNKNOWN

c File: j12059_5.smor1000.wcnf
c timeout
c final solution cost: 111
c CPU time: 62.344945
s UNKNOWN


rcpsp/heur_output_log_0/heurj120.txt
encoding rcpsp/j120.sm/j12059_6.sm nv: 8401932 nc: 17017750 enctime: 147.79
encoding rcpsp/j120.sm/j12059_6.sm nv: 1515500 nc: 3064830 enctime: 20.69
c File: j12059_6.smnaiveor1000.wcnf
c timeout
c final solution cost: 151
c CPU time: 78.045332
s UNKNOWN

c File: j12059_6.smor1000.wcnf
c timeout
c final solution cost: 122
c CPU time: 62.506711
s UNKNOWN


rcpsp/heur_output_log_0/heurj120.txt
encoding rcpsp/j120.sm/j12059_7.sm nv: 7304904 nc: 14785637 enctime: 130.37
encoding rcpsp/j120.sm/j12059_7.sm nv: 1386579 nc: 2802512 enctime: 19.00
c File: j12059_7.smnaiveor1000.wcnf
c timeout
c final solution cost: 128
c CPU time: 74.787577
s UNKNOWN

c File: j12059_7.smor1000.wcnf
c timeout
c CPU time: 61.869680
s UNKNOWN


rcpsp/heur_output_log_0/heurj120.txt
encoding rcpsp/j120.sm/j12059_8.sm nv: 8168840 nc: 16536937 enctime: 143.51
encoding rcpsp/j120.sm/j12059_8.sm nv: 1441560 nc: 2913817 enctime: 19.58
c File: j12059_8.smnaiveor1000.wcnf
c timeout
c CPU time: 74.631712
s UNKNOWN

c File: j12059_8.smor1000.wcnf
c timeout
c CPU time: 61.935355
s UNKNOWN


rcpsp/heur_output_log_0/heurj120.txt
encoding rcpsp/j120.sm/j12059_9.sm nv: 6807520 nc: 13777236 enctime: 117.46
encoding rcpsp/j120.sm/j12059_9.sm nv: 1387520 nc: 2804236 enctime: 21.47
c File: j12059_9.smnaiveor1000.wcnf
c timeout
c final solution cost: 124
c CPU time: 73.559745
s UNKNOWN

c File: j12059_9.smor1000.wcnf
c timeout
c final solution cost: 125
c CPU time: 62.275714
s UNKNOWN


rcpsp/heur_output_log_0/heurj120.txt
encoding rcpsp/j120.sm/j1205_9.sm nv: 1003904 nc: 2214050 enctime: 28.70
encoding rcpsp/j120.sm/j1205_9.sm nv: 166336 nc: 362524 enctime: 2.64
c File: j1205_9.smnaiveor1000.wcnf
c optimal
c final solution cost: 106
c CPU time: 6.640937
s OPTIMUM FOUND

c File: j1205_9.smor1000.wcnf
c optimal
c final solution cost: 106
c CPU time: 0.492336
s OPTIMUM FOUND


rcpsp/heur_output_log_0/heurj120.txt
encoding rcpsp/j120.sm/j12060_10.sm nv: 9027135 nc: 18145348 enctime: 144.43
encoding rcpsp/j120.sm/j12060_10.sm nv: 1465945 nc: 2943098 enctime: 20.12
c File: j12060_10.smnaiveor1000.wcnf
c timeout
c final solution cost: 92
c CPU time: 76.848206
s UNKNOWN

c File: j12060_10.smor1000.wcnf
c timeout
c final solution cost: 92
c CPU time: 62.297433
s UNKNOWN


rcpsp/heur_output_log_0/heurj120.txt
encoding rcpsp/j120.sm/j12060_1.sm nv: 9954882 nc: 20065544 enctime: 162.58
encoding rcpsp/j120.sm/j12060_1.sm nv: 1543158 nc: 3105876 enctime: 20.95
c File: j12060_1.smnaiveor1000.wcnf
c optimal
c final solution cost: 101
c CPU time: 52.868677
s OPTIMUM FOUND

c File: j12060_1.smor1000.wcnf
c optimal
c final solution cost: 101
c CPU time: 5.804398
s OPTIMUM FOUND


rcpsp/heur_output_log_0/heurj120.txt
encoding rcpsp/j120.sm/j12060_2.sm nv: 9997064 nc: 20105889 enctime: 159.24
encoding rcpsp/j120.sm/j12060_2.sm nv: 1444381 nc: 2900920 enctime: 20.15
c File: j12060_2.smnaiveor1000.wcnf
c timeout
c final solution cost: 115
c CPU time: 78.232978
s UNKNOWN

c File: j12060_2.smor1000.wcnf
c timeout
c final solution cost: 87
c CPU time: 62.176619
s UNKNOWN


rcpsp/heur_output_log_0/heurj120.txt
encoding rcpsp/j120.sm/j12060_3.sm nv: 8156610 nc: 16430170 enctime: 136.24
encoding rcpsp/j120.sm/j12060_3.sm nv: 1280790 nc: 2576020 enctime: 13.91
c File: j12060_3.smnaiveor1000.wcnf
c timeout
c final solution cost: 93
c CPU time: 75.094641
s UNKNOWN

c File: j12060_3.smor1000.wcnf
c timeout
c CPU time: 61.642594
s UNKNOWN


rcpsp/heur_output_log_0/heurj120.txt
encoding rcpsp/j120.sm/j12060_4.sm nv: 8117291 nc: 16385674 enctime: 133.55
encoding rcpsp/j120.sm/j12060_4.sm nv: 1401730 nc: 2825437 enctime: 18.71
c File: j12060_4.smnaiveor1000.wcnf
c timeout
c final solution cost: 110
c CPU time: 75.325452
s UNKNOWN

c File: j12060_4.smor1000.wcnf
c timeout
c CPU time: 61.896046
s UNKNOWN


rcpsp/heur_output_log_0/heurj120.txt
encoding rcpsp/j120.sm/j12060_5.sm nv: 8378664 nc: 16908056 enctime: 139.19
encoding rcpsp/j120.sm/j12060_5.sm nv: 1475488 nc: 2973324 enctime: 19.97
c File: j12060_5.smnaiveor1000.wcnf
c timeout
c final solution cost: 123
c CPU time: 76.930377
s UNKNOWN

c File: j12060_5.smor1000.wcnf
c timeout
c CPU time: 61.939139
s UNKNOWN


rcpsp/heur_output_log_0/heurj120.txt
encoding rcpsp/j120.sm/j12060_6.sm nv: 9750855 nc: 19711737 enctime: 161.77
encoding rcpsp/j120.sm/j12060_6.sm nv: 1562903 nc: 3154681 enctime: 20.85
c File: j12060_6.smnaiveor1000.wcnf
c timeout
c final solution cost: 113
c CPU time: 78.887131
s UNKNOWN

c File: j12060_6.smor1000.wcnf
c optimal
c final solution cost: 110
c CPU time: 46.833853
s OPTIMUM FOUND


rcpsp/heur_output_log_0/heurj120.txt
encoding rcpsp/j120.sm/j12060_7.sm nv: 8520096 nc: 17169496 enctime: 135.79
encoding rcpsp/j120.sm/j12060_7.sm nv: 1379054 nc: 2774967 enctime: 18.86
c File: j12060_7.smnaiveor1000.wcnf
c timeout
c final solution cost: 118
c CPU time: 76.308914
s UNKNOWN

c File: j12060_7.smor1000.wcnf
c timeout
c CPU time: 61.781468
s UNKNOWN


rcpsp/heur_output_log_0/heurj120.txt
encoding rcpsp/j120.sm/j12060_8.sm nv: 11050350 nc: 22273152 enctime: 172.96
encoding rcpsp/j120.sm/j12060_8.sm nv: 1745635 nc: 3513824 enctime: 22.74
c File: j12060_8.smnaiveor1000.wcnf
c timeout
c final solution cost: 116
c CPU time: 80.522589
s UNKNOWN

c File: j12060_8.smor1000.wcnf
c timeout
c final solution cost: 104
c CPU time: 62.618909
s UNKNOWN


rcpsp/heur_output_log_0/heurj120.txt
encoding rcpsp/j120.sm/j12060_9.sm nv: 11621928 nc: 23400086 enctime: 174.74
encoding rcpsp/j120.sm/j12060_9.sm nv: 1752648 nc: 3524066 enctime: 23.02
c File: j12060_9.smnaiveor1000.wcnf
c optimal
c final solution cost: 101
c CPU time: 36.109985
s OPTIMUM FOUND

c File: j12060_9.smor1000.wcnf
c optimal
c final solution cost: 101
c CPU time: 5.626801
s OPTIMUM FOUND


